;; translated from ./ctigar/NetBSD_g_Ctoc.c.vmt
;; original benchmark available at: https://es-static.fbk.eu/people/griggio/ic3ia/index.html
;; author: Alberto Griggio <griggio@fbk.eu>
(set-logic HORN)
(declare-fun state (Bool Bool Bool Bool Bool Bool Int Int Int Int) Bool)
(assert (forall ((|.s.3| Bool) (|.s.4| Bool) (|.s.2| Bool) (|.s.0| Bool) (|.s.1| Bool) (|.s.0.next| Bool) (|.s.1.next| Bool) (|.s.2.next| Bool) (|.s.3.next| Bool) (|.s.4.next| Bool) (|.s.5.next| Bool) (|main.i.next| Int) (|main.i| Int) (|main.j.next| Int) (|main.j| Int) (|base_sz.next| Int) (|base_sz| Int) (|main.len.next| Int) (|main.len| Int) (|.inputVar.0| Int) (|.s.5| Bool)) (=> (let ((.def_23 (not .s.5)))
(let ((.def_20 (not .s.4)))
(let ((.def_17 (not .s.3)))
(let ((.def_14 (not .s.2)))
(let ((.def_10 (not .s.1)))
(let ((.def_12 (and .def_10 .s.0)))
(let ((.def_15 (and .def_12 .def_14)))
(let ((.def_18 (and .def_15 .def_17)))
(let ((.def_21 (and .def_18 .def_20)))
(let ((.def_24 (and .def_21 .def_23)))
.def_24)))))))))) (state |.s.1| |.s.0| |.s.2| |.s.3| |.s.4| |.s.5| |main.i| |main.j| |base_sz| |main.len|))))
(assert (forall ((|.s.3| Bool) (|.s.4| Bool) (|.s.2| Bool) (|.s.0| Bool) (|.s.1| Bool) (|.s.0.next| Bool) (|.s.1.next| Bool) (|.s.2.next| Bool) (|.s.3.next| Bool) (|.s.4.next| Bool) (|.s.5.next| Bool) (|main.i.next| Int) (|main.i| Int) (|main.j.next| Int) (|main.j| Int) (|base_sz.next| Int) (|base_sz| Int) (|main.len.next| Int) (|main.len| Int) (|.inputVar.0| Int) (|.s.5| Bool)) (=> (and (state |.s.1| |.s.0| |.s.2| |.s.3| |.s.4| |.s.5| |main.i| |main.j| |base_sz| |main.len|) (let ((.def_62 (not .s.0)))
(let ((.def_10 (not .s.1)))
(let ((.def_94 (and .def_10 .def_62)))
(let ((.def_14 (not .s.2)))
(let ((.def_95 (and .def_14 .def_94)))
(let ((.def_17 (not .s.3)))
(let ((.def_96 (and .def_17 .def_95)))
(let ((.def_20 (not .s.4)))
(let ((.def_97 (and .def_20 .def_96)))
(let ((.def_23 (not .s.5)))
(let ((.def_512 (and .def_23 .def_97)))
(let ((.def_513 (not .def_512)))
(let ((.def_71 (not .s.0.next)))
(let ((.def_70 (not .s.1.next)))
(let ((.def_72 (and .def_70 .def_71)))
(let ((.def_35 (not .s.2.next)))
(let ((.def_73 (and .def_35 .def_72)))
(let ((.def_38 (not .s.3.next)))
(let ((.def_74 (and .def_38 .def_73)))
(let ((.def_41 (not .s.4.next)))
(let ((.def_75 (and .def_41 .def_74)))
(let ((.def_69 (not .s.5.next)))
(let ((.def_76 (and .def_69 .def_75)))
(let ((.def_47 (= main.i main.i.next)))
(let ((.def_77 (and .def_47 .def_76)))
(let ((.def_51 (= main.j main.j.next)))
(let ((.def_78 (and .def_51 .def_77)))
(let ((.def_55 (= base_sz base_sz.next)))
(let ((.def_79 (and .def_55 .def_78)))
(let ((.def_59 (= main.len main.len.next)))
(let ((.def_80 (and .def_59 .def_79)))
(let ((.def_514 (or .def_80 .def_513)))
(let ((.def_125 (and .s.1.next .def_71)))
(let ((.def_140 (and .def_35 .def_125)))
(let ((.def_314 (and .def_38 .def_140)))
(let ((.def_505 (and .def_41 .def_314)))
(let ((.def_506 (and .def_69 .def_505)))
(let ((.def_504 (= base_sz main.len.next)))
(let ((.def_507 (and .def_504 .def_506)))
(let ((.def_508 (and .def_47 .def_507)))
(let ((.def_509 (and .def_51 .def_508)))
(let ((.def_510 (and .def_55 .def_509)))
(let ((.def_12 (and .def_10 .s.0)))
(let ((.def_15 (and .def_12 .def_14)))
(let ((.def_18 (and .def_15 .def_17)))
(let ((.def_21 (and .def_18 .def_20)))
(let ((.def_24 (and .def_21 .def_23)))
(let ((.def_503 (not .def_24)))
(let ((.def_511 (or .def_503 .def_510)))
(let ((.def_515 (and .def_511 .def_514)))
(let ((.def_33 (and .s.0.next .s.1.next)))
(let ((.def_36 (and .def_33 .def_35)))
(let ((.def_39 (and .def_36 .def_38)))
(let ((.def_42 (and .def_39 .def_41)))
(let ((.def_497 (and .def_42 .def_69)))
(let ((.def_498 (and .def_47 .def_497)))
(let ((.def_499 (and .def_51 .def_498)))
(let ((.def_500 (and .def_55 .def_499)))
(let ((.def_501 (and .def_59 .def_500)))
(let ((.def_484 (<= base_sz 0)))
(let ((.def_63 (and .s.1 .def_62)))
(let ((.def_64 (and .def_14 .def_63)))
(let ((.def_65 (and .def_17 .def_64)))
(let ((.def_66 (and .def_20 .def_65)))
(let ((.def_483 (and .def_23 .def_66)))
(let ((.def_495 (and .def_483 .def_484)))
(let ((.def_496 (not .def_495)))
(let ((.def_502 (or .def_496 .def_501)))
(let ((.def_516 (and .def_502 .def_515)))
(let ((.def_172 (and .s.2.next .def_72)))
(let ((.def_284 (and .def_38 .def_172)))
(let ((.def_488 (and .def_41 .def_284)))
(let ((.def_489 (and .def_69 .def_488)))
(let ((.def_490 (and .def_47 .def_489)))
(let ((.def_491 (and .def_51 .def_490)))
(let ((.def_492 (and .def_55 .def_491)))
(let ((.def_493 (and .def_59 .def_492)))
(let ((.def_485 (not .def_484)))
(let ((.def_486 (and .def_483 .def_485)))
(let ((.def_487 (not .def_486)))
(let ((.def_494 (or .def_487 .def_493)))
(let ((.def_517 (and .def_494 .def_516)))
(let ((.def_25 (and .s.1 .s.0)))
(let ((.def_26 (and .def_14 .def_25)))
(let ((.def_27 (and .def_17 .def_26)))
(let ((.def_28 (and .def_20 .def_27)))
(let ((.def_480 (and .def_23 .def_28)))
(let ((.def_481 (not .def_480)))
(let ((.def_482 (or .def_80 .def_481)))
(let ((.def_518 (and .def_482 .def_517)))
(let ((.def_466 (<= 1 base_sz)))
(let ((.def_476 (not .def_466)))
(let ((.def_149 (and .s.2 .def_94)))
(let ((.def_266 (and .def_17 .def_149)))
(let ((.def_464 (and .def_20 .def_266)))
(let ((.def_465 (and .def_23 .def_464)))
(let ((.def_477 (and .def_465 .def_476)))
(let ((.def_478 (not .def_477)))
(let ((.def_44 (and .def_42 .s.5.next)))
(let ((.def_48 (and .def_44 .def_47)))
(let ((.def_52 (and .def_48 .def_51)))
(let ((.def_56 (and .def_52 .def_55)))
(let ((.def_60 (and .def_56 .def_59)))
(let ((.def_479 (or .def_60 .def_478)))
(let ((.def_519 (and .def_479 .def_518)))
(let ((.def_84 (and .s.0.next .def_70)))
(let ((.def_159 (and .s.2.next .def_84)))
(let ((.def_270 (and .def_38 .def_159)))
(let ((.def_469 (and .def_41 .def_270)))
(let ((.def_470 (and .def_69 .def_469)))
(let ((.def_471 (and .def_47 .def_470)))
(let ((.def_472 (and .def_51 .def_471)))
(let ((.def_473 (and .def_55 .def_472)))
(let ((.def_474 (and .def_59 .def_473)))
(let ((.def_467 (and .def_465 .def_466)))
(let ((.def_468 (not .def_467)))
(let ((.def_475 (or .def_468 .def_474)))
(let ((.def_520 (and .def_475 .def_519)))
(let ((.def_126 (and .s.2.next .def_125)))
(let ((.def_258 (and .def_38 .def_126)))
(let ((.def_457 (and .def_41 .def_258)))
(let ((.def_458 (and .def_69 .def_457)))
(let ((.def_459 (and .def_47 .def_458)))
(let ((.def_460 (and .def_51 .def_459)))
(let ((.def_461 (and .def_55 .def_460)))
(let ((.def_462 (and .def_59 .def_461)))
(let ((.def_135 (and .def_12 .s.2)))
(let ((.def_239 (and .def_17 .def_135)))
(let ((.def_454 (and .def_20 .def_239)))
(let ((.def_455 (and .def_23 .def_454)))
(let ((.def_456 (not .def_455)))
(let ((.def_463 (or .def_456 .def_462)))
(let ((.def_521 (and .def_463 .def_520)))
(let ((.def_111 (and .def_33 .s.2.next)))
(let ((.def_231 (and .def_38 .def_111)))
(let ((.def_447 (and .def_41 .def_231)))
(let ((.def_448 (and .def_69 .def_447)))
(let ((.def_449 (and .def_47 .def_448)))
(let ((.def_450 (and .def_51 .def_449)))
(let ((.def_451 (and .def_55 .def_450)))
(let ((.def_452 (and .def_59 .def_451)))
(let ((.def_120 (and .s.2 .def_63)))
(let ((.def_227 (and .def_17 .def_120)))
(let ((.def_434 (and .def_20 .def_227)))
(let ((.def_435 (and .def_23 .def_434)))
(let ((.def_380 (= main.len 0)))
(let ((.def_445 (and .def_380 .def_435)))
(let ((.def_446 (not .def_445)))
(let ((.def_453 (or .def_446 .def_452)))
(let ((.def_522 (and .def_453 .def_521)))
(let ((.def_219 (and .s.3.next .def_73)))
(let ((.def_438 (and .def_41 .def_219)))
(let ((.def_439 (and .def_69 .def_438)))
(let ((.def_440 (and .def_47 .def_439)))
(let ((.def_441 (and .def_51 .def_440)))
(let ((.def_442 (and .def_55 .def_441)))
(let ((.def_443 (and .def_59 .def_442)))
(let ((.def_381 (not .def_380)))
(let ((.def_436 (and .def_381 .def_435)))
(let ((.def_437 (not .def_436)))
(let ((.def_444 (or .def_437 .def_443)))
(let ((.def_523 (and .def_444 .def_522)))
(let ((.def_106 (and .s.2 .def_25)))
(let ((.def_215 (and .def_17 .def_106)))
(let ((.def_430 (and .def_20 .def_215)))
(let ((.def_431 (and .def_23 .def_430)))
(let ((.def_432 (not .def_431)))
(let ((.def_433 (or .def_80 .def_432)))
(let ((.def_524 (and .def_433 .def_523)))
(let ((.def_85 (and .def_35 .def_84)))
(let ((.def_248 (and .s.3.next .def_85)))
(let ((.def_423 (and .def_41 .def_248)))
(let ((.def_424 (and .def_69 .def_423)))
(let ((.def_422 (= main.i.next 0)))
(let ((.def_425 (and .def_422 .def_424)))
(let ((.def_426 (and .def_51 .def_425)))
(let ((.def_427 (and .def_55 .def_426)))
(let ((.def_428 (and .def_59 .def_427)))
(let ((.def_210 (and .s.3 .def_95)))
(let ((.def_419 (and .def_20 .def_210)))
(let ((.def_420 (and .def_23 .def_419)))
(let ((.def_421 (not .def_420)))
(let ((.def_429 (or .def_421 .def_428)))
(let ((.def_525 (and .def_429 .def_524)))
(let ((.def_413 (= main.j.next 0)))
(let ((.def_141 (and .s.3.next .def_140)))
(let ((.def_142 (and .def_41 .def_141)))
(let ((.def_143 (and .def_69 .def_142)))
(let ((.def_414 (and .def_143 .def_413)))
(let ((.def_415 (and .def_47 .def_414)))
(let ((.def_416 (and .def_55 .def_415)))
(let ((.def_417 (and .def_59 .def_416)))
(let ((.def_199 (and .def_15 .s.3)))
(let ((.def_410 (and .def_20 .def_199)))
(let ((.def_411 (and .def_23 .def_410)))
(let ((.def_412 (not .def_411)))
(let ((.def_418 (or .def_412 .def_417)))
(let ((.def_526 (and .def_418 .def_525)))
(let ((.def_188 (and .def_36 .s.3.next)))
(let ((.def_403 (and .def_41 .def_188)))
(let ((.def_404 (and .def_69 .def_403)))
(let ((.def_405 (and .def_47 .def_404)))
(let ((.def_406 (and .def_51 .def_405)))
(let ((.def_407 (and .def_55 .def_406)))
(let ((.def_408 (and .def_59 .def_407)))
(let ((.def_184 (and .s.3 .def_64)))
(let ((.def_400 (and .def_20 .def_184)))
(let ((.def_401 (and .def_23 .def_400)))
(let ((.def_402 (not .def_401)))
(let ((.def_409 (or .def_402 .def_408)))
(let ((.def_527 (and .def_409 .def_526)))
(let ((.def_173 (and .s.3.next .def_172)))
(let ((.def_393 (and .def_41 .def_173)))
(let ((.def_394 (and .def_69 .def_393)))
(let ((.def_395 (and .def_47 .def_394)))
(let ((.def_396 (and .def_51 .def_395)))
(let ((.def_397 (and .def_55 .def_396)))
(let ((.def_398 (and .def_59 .def_397)))
(let ((.def_168 (and .s.3 .def_26)))
(let ((.def_378 (and .def_20 .def_168)))
(let ((.def_379 (and .def_23 .def_378)))
(let ((.def_391 (and .def_379 .def_380)))
(let ((.def_392 (not .def_391)))
(let ((.def_399 (or .def_392 .def_398)))
(let ((.def_528 (and .def_399 .def_527)))
(let ((.def_160 (and .s.3.next .def_159)))
(let ((.def_384 (and .def_41 .def_160)))
(let ((.def_385 (and .def_69 .def_384)))
(let ((.def_386 (and .def_47 .def_385)))
(let ((.def_387 (and .def_51 .def_386)))
(let ((.def_388 (and .def_55 .def_387)))
(let ((.def_389 (and .def_59 .def_388)))
(let ((.def_382 (and .def_379 .def_381)))
(let ((.def_383 (not .def_382)))
(let ((.def_390 (or .def_383 .def_389)))
(let ((.def_529 (and .def_390 .def_528)))
(let ((.def_150 (and .s.3 .def_149)))
(let ((.def_374 (and .def_20 .def_150)))
(let ((.def_375 (and .def_23 .def_374)))
(let ((.def_376 (not .def_375)))
(let ((.def_377 (or .def_80 .def_376)))
(let ((.def_530 (and .def_377 .def_529)))
(let ((.def_360 (<= 0 main.j)))
(let ((.def_370 (not .def_360)))
(let ((.def_136 (and .s.3 .def_135)))
(let ((.def_358 (and .def_20 .def_136)))
(let ((.def_359 (and .def_23 .def_358)))
(let ((.def_371 (and .def_359 .def_370)))
(let ((.def_372 (not .def_371)))
(let ((.def_86 (and .def_38 .def_85)))
(let ((.def_87 (and .def_41 .def_86)))
(let ((.def_88 (and .s.5.next .def_87)))
(let ((.def_89 (and .def_47 .def_88)))
(let ((.def_90 (and .def_51 .def_89)))
(let ((.def_91 (and .def_55 .def_90)))
(let ((.def_92 (and .def_59 .def_91)))
(let ((.def_373 (or .def_92 .def_372)))
(let ((.def_531 (and .def_373 .def_530)))
(let ((.def_127 (and .s.3.next .def_126)))
(let ((.def_363 (and .def_41 .def_127)))
(let ((.def_364 (and .def_69 .def_363)))
(let ((.def_365 (and .def_47 .def_364)))
(let ((.def_366 (and .def_51 .def_365)))
(let ((.def_367 (and .def_55 .def_366)))
(let ((.def_368 (and .def_59 .def_367)))
(let ((.def_361 (and .def_359 .def_360)))
(let ((.def_362 (not .def_361)))
(let ((.def_369 (or .def_362 .def_368)))
(let ((.def_532 (and .def_369 .def_531)))
(let ((.def_112 (and .s.3.next .def_111)))
(let ((.def_351 (and .def_41 .def_112)))
(let ((.def_352 (and .def_69 .def_351)))
(let ((.def_353 (and .def_47 .def_352)))
(let ((.def_354 (and .def_51 .def_353)))
(let ((.def_355 (and .def_55 .def_354)))
(let ((.def_356 (and .def_59 .def_355)))
(let ((.def_121 (and .s.3 .def_120)))
(let ((.def_348 (and .def_20 .def_121)))
(let ((.def_349 (and .def_23 .def_348)))
(let ((.def_350 (not .def_349)))
(let ((.def_357 (or .def_350 .def_356)))
(let ((.def_533 (and .def_357 .def_532)))
(let ((.def_334 (<= base_sz main.j)))
(let ((.def_107 (and .s.3 .def_106)))
(let ((.def_332 (and .def_20 .def_107)))
(let ((.def_333 (and .def_23 .def_332)))
(let ((.def_345 (and .def_333 .def_334)))
(let ((.def_346 (not .def_345)))
(let ((.def_100 (and .s.5.next .def_75)))
(let ((.def_101 (and .def_47 .def_100)))
(let ((.def_102 (and .def_51 .def_101)))
(let ((.def_103 (and .def_55 .def_102)))
(let ((.def_104 (and .def_59 .def_103)))
(let ((.def_347 (or .def_104 .def_346)))
(let ((.def_534 (and .def_347 .def_533)))
(let ((.def_338 (and .s.4.next .def_74)))
(let ((.def_339 (and .def_69 .def_338)))
(let ((.def_340 (and .def_47 .def_339)))
(let ((.def_341 (and .def_51 .def_340)))
(let ((.def_342 (and .def_55 .def_341)))
(let ((.def_343 (and .def_59 .def_342)))
(let ((.def_335 (not .def_334)))
(let ((.def_336 (and .def_333 .def_335)))
(let ((.def_337 (not .def_336)))
(let ((.def_344 (or .def_337 .def_343)))
(let ((.def_535 (and .def_344 .def_534)))
(let ((.def_325 (and .s.4.next .def_86)))
(let ((.def_326 (and .def_69 .def_325)))
(let ((.def_327 (and .def_47 .def_326)))
(let ((.def_328 (and .def_51 .def_327)))
(let ((.def_329 (and .def_55 .def_328)))
(let ((.def_330 (and .def_59 .def_329)))
(let ((.def_322 (and .s.4 .def_96)))
(let ((.def_323 (and .def_23 .def_322)))
(let ((.def_324 (not .def_323)))
(let ((.def_331 (or .def_324 .def_330)))
(let ((.def_536 (and .def_331 .def_535)))
(let ((.def_315 (and .s.4.next .def_314)))
(let ((.def_316 (and .def_69 .def_315)))
(let ((.def_317 (and .def_47 .def_316)))
(let ((.def_318 (and .def_51 .def_317)))
(let ((.def_319 (and .def_55 .def_318)))
(let ((.def_320 (and .def_59 .def_319)))
(let ((.def_307 (<= 0 main.i)))
(let ((.def_305 (and .def_18 .s.4)))
(let ((.def_306 (and .def_23 .def_305)))
(let ((.def_312 (and .def_306 .def_307)))
(let ((.def_313 (not .def_312)))
(let ((.def_321 (or .def_313 .def_320)))
(let ((.def_537 (and .def_321 .def_536)))
(let ((.def_308 (not .def_307)))
(let ((.def_309 (and .def_306 .def_308)))
(let ((.def_310 (not .def_309)))
(let ((.def_113 (and .s.4.next .def_112)))
(let ((.def_114 (and .def_69 .def_113)))
(let ((.def_115 (and .def_47 .def_114)))
(let ((.def_116 (and .def_51 .def_115)))
(let ((.def_117 (and .def_55 .def_116)))
(let ((.def_118 (and .def_59 .def_117)))
(let ((.def_311 (or .def_118 .def_310)))
(let ((.def_538 (and .def_311 .def_537)))
(let ((.def_298 (and .def_39 .s.4.next)))
(let ((.def_299 (and .def_69 .def_298)))
(let ((.def_300 (and .def_47 .def_299)))
(let ((.def_301 (and .def_51 .def_300)))
(let ((.def_302 (and .def_55 .def_301)))
(let ((.def_303 (and .def_59 .def_302)))
(let ((.def_295 (and .s.4 .def_65)))
(let ((.def_296 (and .def_23 .def_295)))
(let ((.def_297 (not .def_296)))
(let ((.def_304 (or .def_297 .def_303)))
(let ((.def_539 (and .def_304 .def_538)))
(let ((.def_280 (<= base_sz main.i)))
(let ((.def_278 (and .s.4 .def_27)))
(let ((.def_279 (and .def_23 .def_278)))
(let ((.def_292 (and .def_279 .def_280)))
(let ((.def_293 (not .def_292)))
(let ((.def_128 (and .s.4.next .def_127)))
(let ((.def_129 (and .def_69 .def_128)))
(let ((.def_130 (and .def_47 .def_129)))
(let ((.def_131 (and .def_51 .def_130)))
(let ((.def_132 (and .def_55 .def_131)))
(let ((.def_133 (and .def_59 .def_132)))
(let ((.def_294 (or .def_133 .def_293)))
(let ((.def_540 (and .def_294 .def_539)))
(let ((.def_285 (and .s.4.next .def_284)))
(let ((.def_286 (and .def_69 .def_285)))
(let ((.def_287 (and .def_47 .def_286)))
(let ((.def_288 (and .def_51 .def_287)))
(let ((.def_289 (and .def_55 .def_288)))
(let ((.def_290 (and .def_59 .def_289)))
(let ((.def_281 (not .def_280)))
(let ((.def_282 (and .def_279 .def_281)))
(let ((.def_283 (not .def_282)))
(let ((.def_291 (or .def_283 .def_290)))
(let ((.def_541 (and .def_291 .def_540)))
(let ((.def_271 (and .s.4.next .def_270)))
(let ((.def_272 (and .def_69 .def_271)))
(let ((.def_273 (and .def_47 .def_272)))
(let ((.def_274 (and .def_51 .def_273)))
(let ((.def_275 (and .def_55 .def_274)))
(let ((.def_276 (and .def_59 .def_275)))
(let ((.def_267 (and .s.4 .def_266)))
(let ((.def_268 (and .def_23 .def_267)))
(let ((.def_269 (not .def_268)))
(let ((.def_277 (or .def_269 .def_276)))
(let ((.def_542 (and .def_277 .def_541)))
(let ((.def_259 (and .s.4.next .def_258)))
(let ((.def_260 (and .def_69 .def_259)))
(let ((.def_261 (and .def_47 .def_260)))
(let ((.def_262 (and .def_51 .def_261)))
(let ((.def_263 (and .def_55 .def_262)))
(let ((.def_264 (and .def_59 .def_263)))
(let ((.def_244 (= .inputVar.0 0)))
(let ((.def_240 (and .s.4 .def_239)))
(let ((.def_241 (and .def_23 .def_240)))
(let ((.def_256 (and .def_241 .def_244)))
(let ((.def_257 (not .def_256)))
(let ((.def_265 (or .def_257 .def_264)))
(let ((.def_543 (and .def_265 .def_542)))
(let ((.def_249 (and .s.4.next .def_248)))
(let ((.def_250 (and .def_69 .def_249)))
(let ((.def_251 (and .def_47 .def_250)))
(let ((.def_252 (and .def_51 .def_251)))
(let ((.def_253 (and .def_55 .def_252)))
(let ((.def_254 (and .def_59 .def_253)))
(let ((.def_245 (not .def_244)))
(let ((.def_246 (and .def_241 .def_245)))
(let ((.def_247 (not .def_246)))
(let ((.def_255 (or .def_247 .def_254)))
(let ((.def_544 (and .def_255 .def_543)))
(let ((.def_232 (and .s.4.next .def_231)))
(let ((.def_233 (and .def_69 .def_232)))
(let ((.def_191 (* (- 1) main.i.next)))
(let ((.def_192 (+ main.i .def_191)))
(let ((.def_193 (= .def_192 (- 1))))
(let ((.def_234 (and .def_193 .def_233)))
(let ((.def_235 (and .def_51 .def_234)))
(let ((.def_236 (and .def_55 .def_235)))
(let ((.def_237 (and .def_59 .def_236)))
(let ((.def_228 (and .s.4 .def_227)))
(let ((.def_229 (and .def_23 .def_228)))
(let ((.def_230 (not .def_229)))
(let ((.def_238 (or .def_230 .def_237)))
(let ((.def_545 (and .def_238 .def_544)))
(let ((.def_220 (and .s.4.next .def_219)))
(let ((.def_221 (and .def_69 .def_220)))
(let ((.def_176 (* (- 1) main.j.next)))
(let ((.def_177 (+ main.j .def_176)))
(let ((.def_178 (= .def_177 (- 1))))
(let ((.def_222 (and .def_178 .def_221)))
(let ((.def_223 (and .def_47 .def_222)))
(let ((.def_224 (and .def_55 .def_223)))
(let ((.def_225 (and .def_59 .def_224)))
(let ((.def_216 (and .s.4 .def_215)))
(let ((.def_217 (and .def_23 .def_216)))
(let ((.def_218 (not .def_217)))
(let ((.def_226 (or .def_218 .def_225)))
(let ((.def_546 (and .def_226 .def_545)))
(let ((.def_211 (and .s.4 .def_210)))
(let ((.def_212 (and .def_23 .def_211)))
(let ((.def_213 (not .def_212)))
(let ((.def_214 (or .def_80 .def_213)))
(let ((.def_547 (and .def_214 .def_546)))
(let ((.def_203 (and .s.4.next .def_141)))
(let ((.def_204 (and .def_69 .def_203)))
(let ((.def_205 (and .def_47 .def_204)))
(let ((.def_206 (and .def_51 .def_205)))
(let ((.def_207 (and .def_55 .def_206)))
(let ((.def_208 (and .def_59 .def_207)))
(let ((.def_200 (and .s.4 .def_199)))
(let ((.def_201 (and .def_23 .def_200)))
(let ((.def_202 (not .def_201)))
(let ((.def_209 (or .def_202 .def_208)))
(let ((.def_548 (and .def_209 .def_547)))
(let ((.def_189 (and .s.4.next .def_188)))
(let ((.def_190 (and .def_69 .def_189)))
(let ((.def_194 (and .def_190 .def_193)))
(let ((.def_195 (and .def_51 .def_194)))
(let ((.def_196 (and .def_55 .def_195)))
(let ((.def_197 (and .def_59 .def_196)))
(let ((.def_185 (and .s.4 .def_184)))
(let ((.def_186 (and .def_23 .def_185)))
(let ((.def_187 (not .def_186)))
(let ((.def_198 (or .def_187 .def_197)))
(let ((.def_549 (and .def_198 .def_548)))
(let ((.def_174 (and .s.4.next .def_173)))
(let ((.def_175 (and .def_69 .def_174)))
(let ((.def_179 (and .def_175 .def_178)))
(let ((.def_180 (and .def_47 .def_179)))
(let ((.def_181 (and .def_55 .def_180)))
(let ((.def_182 (and .def_59 .def_181)))
(let ((.def_169 (and .s.4 .def_168)))
(let ((.def_170 (and .def_23 .def_169)))
(let ((.def_171 (not .def_170)))
(let ((.def_183 (or .def_171 .def_182)))
(let ((.def_550 (and .def_183 .def_549)))
(let ((.def_161 (and .s.4.next .def_160)))
(let ((.def_162 (and .def_69 .def_161)))
(let ((.def_156 (* (- 1) main.len.next)))
(let ((.def_157 (+ main.len .def_156)))
(let ((.def_158 (= .def_157 1)))
(let ((.def_163 (and .def_158 .def_162)))
(let ((.def_164 (and .def_47 .def_163)))
(let ((.def_165 (and .def_51 .def_164)))
(let ((.def_166 (and .def_55 .def_165)))
(let ((.def_151 (and .s.4 .def_150)))
(let ((.def_152 (and .def_23 .def_151)))
(let ((.def_153 (not .def_152)))
(let ((.def_167 (or .def_153 .def_166)))
(let ((.def_551 (and .def_167 .def_550)))
(let ((.def_144 (and .def_47 .def_143)))
(let ((.def_145 (and .def_51 .def_144)))
(let ((.def_146 (and .def_55 .def_145)))
(let ((.def_147 (and .def_59 .def_146)))
(let ((.def_137 (and .s.4 .def_136)))
(let ((.def_138 (and .def_23 .def_137)))
(let ((.def_139 (not .def_138)))
(let ((.def_148 (or .def_139 .def_147)))
(let ((.def_552 (and .def_148 .def_551)))
(let ((.def_122 (and .s.4 .def_121)))
(let ((.def_123 (and .def_23 .def_122)))
(let ((.def_124 (not .def_123)))
(let ((.def_134 (or .def_124 .def_133)))
(let ((.def_553 (and .def_134 .def_552)))
(let ((.def_108 (and .s.4 .def_107)))
(let ((.def_109 (and .def_23 .def_108)))
(let ((.def_110 (not .def_109)))
(let ((.def_119 (or .def_110 .def_118)))
(let ((.def_554 (and .def_119 .def_553)))
(let ((.def_98 (and .s.5 .def_97)))
(let ((.def_99 (not .def_98)))
(let ((.def_105 (or .def_99 .def_104)))
(let ((.def_555 (and .def_105 .def_554)))
(let ((.def_82 (and .def_21 .s.5)))
(let ((.def_83 (not .def_82)))
(let ((.def_93 (or .def_83 .def_92)))
(let ((.def_556 (and .def_93 .def_555)))
(let ((.def_67 (and .s.5 .def_66)))
(let ((.def_68 (not .def_67)))
(let ((.def_81 (or .def_68 .def_80)))
(let ((.def_557 (and .def_81 .def_556)))
(let ((.def_29 (and .s.5 .def_28)))
(let ((.def_30 (not .def_29)))
(let ((.def_61 (or .def_30 .def_60)))
(let ((.def_558 (and .def_61 .def_557)))
.def_558))))))))))))))))))))))))))))))))))))))))))))))))))))))))))))))))))))))))))))))))))))))))))))))))))))))))))))))))))))))))))))))))))))))))))))))))))))))))))))))))))))))))))))))))))))))))))))))))))))))))))))))))))))))))))))))))))))))))))))))))))))))))))))))))))))))))))))))))))))))))))))))))))))))))))))))))))))))))))))))))))))))))))))))))))))))))))))))))))))))))))))))))))))))))))))))))))))))))))))))))))))))))))))))))))))))))))))))))))))))))))))))))))))))))))))))))))))))))))))))))))))))))))))))))))))))))))))))))))))))))))))))) (state |.s.1.next| |.s.0.next| |.s.2.next| |.s.3.next| |.s.4.next| |.s.5.next| |main.i.next| |main.j.next| |base_sz.next| |main.len.next|))))
(assert (forall ((|.s.3| Bool) (|.s.4| Bool) (|.s.2| Bool) (|.s.0| Bool) (|.s.1| Bool) (|.s.0.next| Bool) (|.s.1.next| Bool) (|.s.2.next| Bool) (|.s.3.next| Bool) (|.s.4.next| Bool) (|.s.5.next| Bool) (|main.i.next| Int) (|main.i| Int) (|main.j.next| Int) (|main.j| Int) (|base_sz.next| Int) (|base_sz| Int) (|main.len.next| Int) (|main.len| Int) (|.inputVar.0| Int) (|.s.5| Bool)) (=> (state |.s.1| |.s.0| |.s.2| |.s.3| |.s.4| |.s.5| |main.i| |main.j| |base_sz| |main.len|) (let ((.def_62 (not .s.0)))
(let ((.def_63 (and .s.1 .def_62)))
(let ((.def_120 (and .s.2 .def_63)))
(let ((.def_121 (and .s.3 .def_120)))
(let ((.def_122 (and .s.4 .def_121)))
(let ((.def_23 (not .s.5)))
(let ((.def_123 (and .def_23 .def_122)))
(let ((.def_124 (not .def_123)))
(let ((.def_25 (and .s.1 .s.0)))
(let ((.def_106 (and .s.2 .def_25)))
(let ((.def_107 (and .s.3 .def_106)))
(let ((.def_108 (and .s.4 .def_107)))
(let ((.def_109 (and .def_23 .def_108)))
(let ((.def_110 (not .def_109)))
(let ((.def_559 (and .def_110 .def_124)))
(let ((.def_10 (not .s.1)))
(let ((.def_94 (and .def_10 .def_62)))
(let ((.def_14 (not .s.2)))
(let ((.def_95 (and .def_14 .def_94)))
(let ((.def_17 (not .s.3)))
(let ((.def_96 (and .def_17 .def_95)))
(let ((.def_20 (not .s.4)))
(let ((.def_97 (and .def_20 .def_96)))
(let ((.def_98 (and .s.5 .def_97)))
(let ((.def_99 (not .def_98)))
(let ((.def_560 (and .def_99 .def_559)))
(let ((.def_12 (and .def_10 .s.0)))
(let ((.def_15 (and .def_12 .def_14)))
(let ((.def_18 (and .def_15 .def_17)))
(let ((.def_21 (and .def_18 .def_20)))
(let ((.def_82 (and .def_21 .s.5)))
(let ((.def_83 (not .def_82)))
(let ((.def_561 (and .def_83 .def_560)))
(let ((.def_26 (and .def_14 .def_25)))
(let ((.def_27 (and .def_17 .def_26)))
(let ((.def_28 (and .def_20 .def_27)))
(let ((.def_29 (and .s.5 .def_28)))
(let ((.def_30 (not .def_29)))
(let ((.def_562 (and .def_30 .def_561)))
.def_562))))))))))))))))))))))))))))))))))))))))))
(check-sat)
